p cnf 475 800
49 50 1 76 77 0
49 50 1 76 -77 0
49 50 1 -76 77 0
49 50 1 -76 -77 0
-49 -50 1 78 79 0
-49 -50 1 78 -79 0
-49 -50 1 -78 79 0
-49 -50 1 -78 -79 0
49 -50 -1 80 81 0
49 -50 -1 80 -81 0
49 -50 -1 -80 81 0
49 -50 -1 -80 -81 0
-49 50 -1 82 83 0
-49 50 -1 82 -83 0
-49 50 -1 -82 83 0
-49 50 -1 -82 -83 0
1 51 2 84 85 0
1 51 2 84 -85 0
1 51 2 -84 85 0
1 51 2 -84 -85 0
-1 -51 2 86 87 0
-1 -51 2 86 -87 0
-1 -51 2 -86 87 0
-1 -51 2 -86 -87 0
1 -51 -2 88 89 0
1 -51 -2 88 -89 0
1 -51 -2 -88 89 0
1 -51 -2 -88 -89 0
-1 51 -2 90 91 0
-1 51 -2 90 -91 0
-1 51 -2 -90 91 0
-1 51 -2 -90 -91 0
2 52 3 92 93 0
2 52 3 92 -93 0
2 52 3 -92 93 0
2 52 3 -92 -93 0
-2 -52 3 94 95 0
-2 -52 3 94 -95 0
-2 -52 3 -94 95 0
-2 -52 3 -94 -95 0
2 -52 -3 96 97 0
2 -52 -3 96 -97 0
2 -52 -3 -96 97 0
2 -52 -3 -96 -97 0
-2 52 -3 98 99 0
-2 52 -3 98 -99 0
-2 52 -3 -98 99 0
-2 52 -3 -98 -99 0
3 53 4 100 101 0
3 53 4 100 -101 0
3 53 4 -100 101 0
3 53 4 -100 -101 0
-3 -53 4 102 103 0
-3 -53 4 102 -103 0
-3 -53 4 -102 103 0
-3 -53 4 -102 -103 0
3 -53 -4 104 105 0
3 -53 -4 104 -105 0
3 -53 -4 -104 105 0
3 -53 -4 -104 -105 0
-3 53 -4 106 107 0
-3 53 -4 106 -107 0
-3 53 -4 -106 107 0
-3 53 -4 -106 -107 0
4 54 5 108 109 0
4 54 5 108 -109 0
4 54 5 -108 109 0
4 54 5 -108 -109 0
-4 -54 5 110 111 0
-4 -54 5 110 -111 0
-4 -54 5 -110 111 0
-4 -54 5 -110 -111 0
4 -54 -5 112 113 0
4 -54 -5 112 -113 0
4 -54 -5 -112 113 0
4 -54 -5 -112 -113 0
-4 54 -5 114 115 0
-4 54 -5 114 -115 0
-4 54 -5 -114 115 0
-4 54 -5 -114 -115 0
5 55 6 116 117 0
5 55 6 116 -117 0
5 55 6 -116 117 0
5 55 6 -116 -117 0
-5 -55 6 118 119 0
-5 -55 6 118 -119 0
-5 -55 6 -118 119 0
-5 -55 6 -118 -119 0
5 -55 -6 120 121 0
5 -55 -6 120 -121 0
5 -55 -6 -120 121 0
5 -55 -6 -120 -121 0
-5 55 -6 122 123 0
-5 55 -6 122 -123 0
-5 55 -6 -122 123 0
-5 55 -6 -122 -123 0
6 56 7 124 125 0
6 56 7 124 -125 0
6 56 7 -124 125 0
6 56 7 -124 -125 0
-6 -56 7 126 127 0
-6 -56 7 126 -127 0
-6 -56 7 -126 127 0
-6 -56 7 -126 -127 0
6 -56 -7 128 129 0
6 -56 -7 128 -129 0
6 -56 -7 -128 129 0
6 -56 -7 -128 -129 0
-6 56 -7 130 131 0
-6 56 -7 130 -131 0
-6 56 -7 -130 131 0
-6 56 -7 -130 -131 0
7 57 8 132 133 0
7 57 8 132 -133 0
7 57 8 -132 133 0
7 57 8 -132 -133 0
-7 -57 8 134 135 0
-7 -57 8 134 -135 0
-7 -57 8 -134 135 0
-7 -57 8 -134 -135 0
7 -57 -8 136 137 0
7 -57 -8 136 -137 0
7 -57 -8 -136 137 0
7 -57 -8 -136 -137 0
-7 57 -8 138 139 0
-7 57 -8 138 -139 0
-7 57 -8 -138 139 0
-7 57 -8 -138 -139 0
8 58 9 140 141 0
8 58 9 140 -141 0
8 58 9 -140 141 0
8 58 9 -140 -141 0
-8 -58 9 142 143 0
-8 -58 9 142 -143 0
-8 -58 9 -142 143 0
-8 -58 9 -142 -143 0
8 -58 -9 144 145 0
8 -58 -9 144 -145 0
8 -58 -9 -144 145 0
8 -58 -9 -144 -145 0
-8 58 -9 146 147 0
-8 58 -9 146 -147 0
-8 58 -9 -146 147 0
-8 58 -9 -146 -147 0
9 59 10 148 149 0
9 59 10 148 -149 0
9 59 10 -148 149 0
9 59 10 -148 -149 0
-9 -59 10 150 151 0
-9 -59 10 150 -151 0
-9 -59 10 -150 151 0
-9 -59 10 -150 -151 0
9 -59 -10 152 153 0
9 -59 -10 152 -153 0
9 -59 -10 -152 153 0
9 -59 -10 -152 -153 0
-9 59 -10 154 155 0
-9 59 -10 154 -155 0
-9 59 -10 -154 155 0
-9 59 -10 -154 -155 0
10 60 11 156 157 0
10 60 11 156 -157 0
10 60 11 -156 157 0
10 60 11 -156 -157 0
-10 -60 11 158 159 0
-10 -60 11 158 -159 0
-10 -60 11 -158 159 0
-10 -60 11 -158 -159 0
10 -60 -11 160 161 0
10 -60 -11 160 -161 0
10 -60 -11 -160 161 0
10 -60 -11 -160 -161 0
-10 60 -11 162 163 0
-10 60 -11 162 -163 0
-10 60 -11 -162 163 0
-10 60 -11 -162 -163 0
11 61 12 164 165 0
11 61 12 164 -165 0
11 61 12 -164 165 0
11 61 12 -164 -165 0
-11 -61 12 166 167 0
-11 -61 12 166 -167 0
-11 -61 12 -166 167 0
-11 -61 12 -166 -167 0
11 -61 -12 168 169 0
11 -61 -12 168 -169 0
11 -61 -12 -168 169 0
11 -61 -12 -168 -169 0
-11 61 -12 170 171 0
-11 61 -12 170 -171 0
-11 61 -12 -170 171 0
-11 61 -12 -170 -171 0
12 62 13 172 173 0
12 62 13 172 -173 0
12 62 13 -172 173 0
12 62 13 -172 -173 0
-12 -62 13 174 175 0
-12 -62 13 174 -175 0
-12 -62 13 -174 175 0
-12 -62 13 -174 -175 0
12 -62 -13 176 177 0
12 -62 -13 176 -177 0
12 -62 -13 -176 177 0
12 -62 -13 -176 -177 0
-12 62 -13 178 179 0
-12 62 -13 178 -179 0
-12 62 -13 -178 179 0
-12 62 -13 -178 -179 0
13 63 14 180 181 0
13 63 14 180 -181 0
13 63 14 -180 181 0
13 63 14 -180 -181 0
-13 -63 14 182 183 0
-13 -63 14 182 -183 0
-13 -63 14 -182 183 0
-13 -63 14 -182 -183 0
13 -63 -14 184 185 0
13 -63 -14 184 -185 0
13 -63 -14 -184 185 0
13 -63 -14 -184 -185 0
-13 63 -14 186 187 0
-13 63 -14 186 -187 0
-13 63 -14 -186 187 0
-13 63 -14 -186 -187 0
14 64 15 188 189 0
14 64 15 188 -189 0
14 64 15 -188 189 0
14 64 15 -188 -189 0
-14 -64 15 190 191 0
-14 -64 15 190 -191 0
-14 -64 15 -190 191 0
-14 -64 15 -190 -191 0
14 -64 -15 192 193 0
14 -64 -15 192 -193 0
14 -64 -15 -192 193 0
14 -64 -15 -192 -193 0
-14 64 -15 194 195 0
-14 64 -15 194 -195 0
-14 64 -15 -194 195 0
-14 64 -15 -194 -195 0
15 65 16 196 197 0
15 65 16 196 -197 0
15 65 16 -196 197 0
15 65 16 -196 -197 0
-15 -65 16 198 199 0
-15 -65 16 198 -199 0
-15 -65 16 -198 199 0
-15 -65 16 -198 -199 0
15 -65 -16 200 201 0
15 -65 -16 200 -201 0
15 -65 -16 -200 201 0
15 -65 -16 -200 -201 0
-15 65 -16 202 203 0
-15 65 -16 202 -203 0
-15 65 -16 -202 203 0
-15 65 -16 -202 -203 0
16 66 17 204 205 0
16 66 17 204 -205 0
16 66 17 -204 205 0
16 66 17 -204 -205 0
-16 -66 17 206 207 0
-16 -66 17 206 -207 0
-16 -66 17 -206 207 0
-16 -66 17 -206 -207 0
16 -66 -17 208 209 0
16 -66 -17 208 -209 0
16 -66 -17 -208 209 0
16 -66 -17 -208 -209 0
-16 66 -17 210 211 0
-16 66 -17 210 -211 0
-16 66 -17 -210 211 0
-16 66 -17 -210 -211 0
17 67 18 212 213 0
17 67 18 212 -213 0
17 67 18 -212 213 0
17 67 18 -212 -213 0
-17 -67 18 214 215 0
-17 -67 18 214 -215 0
-17 -67 18 -214 215 0
-17 -67 18 -214 -215 0
17 -67 -18 216 217 0
17 -67 -18 216 -217 0
17 -67 -18 -216 217 0
17 -67 -18 -216 -217 0
-17 67 -18 218 219 0
-17 67 -18 218 -219 0
-17 67 -18 -218 219 0
-17 67 -18 -218 -219 0
18 68 19 220 221 0
18 68 19 220 -221 0
18 68 19 -220 221 0
18 68 19 -220 -221 0
-18 -68 19 222 223 0
-18 -68 19 222 -223 0
-18 -68 19 -222 223 0
-18 -68 19 -222 -223 0
18 -68 -19 224 225 0
18 -68 -19 224 -225 0
18 -68 -19 -224 225 0
18 -68 -19 -224 -225 0
-18 68 -19 226 227 0
-18 68 -19 226 -227 0
-18 68 -19 -226 227 0
-18 68 -19 -226 -227 0
19 69 20 228 229 0
19 69 20 228 -229 0
19 69 20 -228 229 0
19 69 20 -228 -229 0
-19 -69 20 230 231 0
-19 -69 20 230 -231 0
-19 -69 20 -230 231 0
-19 -69 20 -230 -231 0
19 -69 -20 232 233 0
19 -69 -20 232 -233 0
19 -69 -20 -232 233 0
19 -69 -20 -232 -233 0
-19 69 -20 234 235 0
-19 69 -20 234 -235 0
-19 69 -20 -234 235 0
-19 69 -20 -234 -235 0
20 70 21 236 237 0
20 70 21 236 -237 0
20 70 21 -236 237 0
20 70 21 -236 -237 0
-20 -70 21 238 239 0
-20 -70 21 238 -239 0
-20 -70 21 -238 239 0
-20 -70 21 -238 -239 0
20 -70 -21 240 241 0
20 -70 -21 240 -241 0
20 -70 -21 -240 241 0
20 -70 -21 -240 -241 0
-20 70 -21 242 243 0
-20 70 -21 242 -243 0
-20 70 -21 -242 243 0
-20 70 -21 -242 -243 0
21 71 22 244 245 0
21 71 22 244 -245 0
21 71 22 -244 245 0
21 71 22 -244 -245 0
-21 -71 22 246 247 0
-21 -71 22 246 -247 0
-21 -71 22 -246 247 0
-21 -71 22 -246 -247 0
21 -71 -22 248 249 0
21 -71 -22 248 -249 0
21 -71 -22 -248 249 0
21 -71 -22 -248 -249 0
-21 71 -22 250 251 0
-21 71 -22 250 -251 0
-21 71 -22 -250 251 0
-21 71 -22 -250 -251 0
22 72 23 252 253 0
22 72 23 252 -253 0
22 72 23 -252 253 0
22 72 23 -252 -253 0
-22 -72 23 254 255 0
-22 -72 23 254 -255 0
-22 -72 23 -254 255 0
-22 -72 23 -254 -255 0
22 -72 -23 256 257 0
22 -72 -23 256 -257 0
22 -72 -23 -256 257 0
22 -72 -23 -256 -257 0
-22 72 -23 258 259 0
-22 72 -23 258 -259 0
-22 72 -23 -258 259 0
-22 72 -23 -258 -259 0
23 73 24 260 261 0
23 73 24 260 -261 0
23 73 24 -260 261 0
23 73 24 -260 -261 0
-23 -73 24 262 263 0
-23 -73 24 262 -263 0
-23 -73 24 -262 263 0
-23 -73 24 -262 -263 0
23 -73 -24 264 265 0
23 -73 -24 264 -265 0
23 -73 -24 -264 265 0
23 -73 -24 -264 -265 0
-23 73 -24 266 267 0
-23 73 -24 266 -267 0
-23 73 -24 -266 267 0
-23 73 -24 -266 -267 0
24 74 75 268 269 0
24 74 75 268 -269 0
24 74 75 -268 269 0
24 74 75 -268 -269 0
-24 -74 75 270 271 0
-24 -74 75 270 -271 0
-24 -74 75 -270 271 0
-24 -74 75 -270 -271 0
24 -74 -75 272 273 0
24 -74 -75 272 -273 0
24 -74 -75 -272 273 0
24 -74 -75 -272 -273 0
-24 74 -75 274 275 0
-24 74 -75 274 -275 0
-24 74 -75 -274 275 0
-24 74 -75 -274 -275 0
25 74 75 276 277 0
25 74 75 276 -277 0
25 74 75 -276 277 0
25 74 75 -276 -277 0
-25 -74 75 278 279 0
-25 -74 75 278 -279 0
-25 -74 75 -278 279 0
-25 -74 75 -278 -279 0
25 -74 -75 280 281 0
25 -74 -75 280 -281 0
25 -74 -75 -280 281 0
25 -74 -75 -280 -281 0
-25 74 -75 282 283 0
-25 74 -75 282 -283 0
-25 74 -75 -282 283 0
-25 74 -75 -282 -283 0
26 73 25 284 285 0
26 73 25 284 -285 0
26 73 25 -284 285 0
26 73 25 -284 -285 0
-26 -73 25 286 287 0
-26 -73 25 286 -287 0
-26 -73 25 -286 287 0
-26 -73 25 -286 -287 0
26 -73 -25 288 289 0
26 -73 -25 288 -289 0
26 -73 -25 -288 289 0
26 -73 -25 -288 -289 0
-26 73 -25 290 291 0
-26 73 -25 290 -291 0
-26 73 -25 -290 291 0
-26 73 -25 -290 -291 0
27 72 26 292 293 0
27 72 26 292 -293 0
27 72 26 -292 293 0
27 72 26 -292 -293 0
-27 -72 26 294 295 0
-27 -72 26 294 -295 0
-27 -72 26 -294 295 0
-27 -72 26 -294 -295 0
27 -72 -26 296 297 0
27 -72 -26 296 -297 0
27 -72 -26 -296 297 0
27 -72 -26 -296 -297 0
-27 72 -26 298 299 0
-27 72 -26 298 -299 0
-27 72 -26 -298 299 0
-27 72 -26 -298 -299 0
28 71 27 300 301 0
28 71 27 300 -301 0
28 71 27 -300 301 0
28 71 27 -300 -301 0
-28 -71 27 302 303 0
-28 -71 27 302 -303 0
-28 -71 27 -302 303 0
-28 -71 27 -302 -303 0
28 -71 -27 304 305 0
28 -71 -27 304 -305 0
28 -71 -27 -304 305 0
28 -71 -27 -304 -305 0
-28 71 -27 306 307 0
-28 71 -27 306 -307 0
-28 71 -27 -306 307 0
-28 71 -27 -306 -307 0
29 70 28 308 309 0
29 70 28 308 -309 0
29 70 28 -308 309 0
29 70 28 -308 -309 0
-29 -70 28 310 311 0
-29 -70 28 310 -311 0
-29 -70 28 -310 311 0
-29 -70 28 -310 -311 0
29 -70 -28 312 313 0
29 -70 -28 312 -313 0
29 -70 -28 -312 313 0
29 -70 -28 -312 -313 0
-29 70 -28 314 315 0
-29 70 -28 314 -315 0
-29 70 -28 -314 315 0
-29 70 -28 -314 -315 0
30 69 29 316 317 0
30 69 29 316 -317 0
30 69 29 -316 317 0
30 69 29 -316 -317 0
-30 -69 29 318 319 0
-30 -69 29 318 -319 0
-30 -69 29 -318 319 0
-30 -69 29 -318 -319 0
30 -69 -29 320 321 0
30 -69 -29 320 -321 0
30 -69 -29 -320 321 0
30 -69 -29 -320 -321 0
-30 69 -29 322 323 0
-30 69 -29 322 -323 0
-30 69 -29 -322 323 0
-30 69 -29 -322 -323 0
31 68 30 324 325 0
31 68 30 324 -325 0
31 68 30 -324 325 0
31 68 30 -324 -325 0
-31 -68 30 326 327 0
-31 -68 30 326 -327 0
-31 -68 30 -326 327 0
-31 -68 30 -326 -327 0
31 -68 -30 328 329 0
31 -68 -30 328 -329 0
31 -68 -30 -328 329 0
31 -68 -30 -328 -329 0
-31 68 -30 330 331 0
-31 68 -30 330 -331 0
-31 68 -30 -330 331 0
-31 68 -30 -330 -331 0
32 67 31 332 333 0
32 67 31 332 -333 0
32 67 31 -332 333 0
32 67 31 -332 -333 0
-32 -67 31 334 335 0
-32 -67 31 334 -335 0
-32 -67 31 -334 335 0
-32 -67 31 -334 -335 0
32 -67 -31 336 337 0
32 -67 -31 336 -337 0
32 -67 -31 -336 337 0
32 -67 -31 -336 -337 0
-32 67 -31 338 339 0
-32 67 -31 338 -339 0
-32 67 -31 -338 339 0
-32 67 -31 -338 -339 0
33 66 32 340 341 0
33 66 32 340 -341 0
33 66 32 -340 341 0
33 66 32 -340 -341 0
-33 -66 32 342 343 0
-33 -66 32 342 -343 0
-33 -66 32 -342 343 0
-33 -66 32 -342 -343 0
33 -66 -32 344 345 0
33 -66 -32 344 -345 0
33 -66 -32 -344 345 0
33 -66 -32 -344 -345 0
-33 66 -32 346 347 0
-33 66 -32 346 -347 0
-33 66 -32 -346 347 0
-33 66 -32 -346 -347 0
34 65 33 348 349 0
34 65 33 348 -349 0
34 65 33 -348 349 0
34 65 33 -348 -349 0
-34 -65 33 350 351 0
-34 -65 33 350 -351 0
-34 -65 33 -350 351 0
-34 -65 33 -350 -351 0
34 -65 -33 352 353 0
34 -65 -33 352 -353 0
34 -65 -33 -352 353 0
34 -65 -33 -352 -353 0
-34 65 -33 354 355 0
-34 65 -33 354 -355 0
-34 65 -33 -354 355 0
-34 65 -33 -354 -355 0
35 64 34 356 357 0
35 64 34 356 -357 0
35 64 34 -356 357 0
35 64 34 -356 -357 0
-35 -64 34 358 359 0
-35 -64 34 358 -359 0
-35 -64 34 -358 359 0
-35 -64 34 -358 -359 0
35 -64 -34 360 361 0
35 -64 -34 360 -361 0
35 -64 -34 -360 361 0
35 -64 -34 -360 -361 0
-35 64 -34 362 363 0
-35 64 -34 362 -363 0
-35 64 -34 -362 363 0
-35 64 -34 -362 -363 0
36 63 35 364 365 0
36 63 35 364 -365 0
36 63 35 -364 365 0
36 63 35 -364 -365 0
-36 -63 35 366 367 0
-36 -63 35 366 -367 0
-36 -63 35 -366 367 0
-36 -63 35 -366 -367 0
36 -63 -35 368 369 0
36 -63 -35 368 -369 0
36 -63 -35 -368 369 0
36 -63 -35 -368 -369 0
-36 63 -35 370 371 0
-36 63 -35 370 -371 0
-36 63 -35 -370 371 0
-36 63 -35 -370 -371 0
37 62 36 372 373 0
37 62 36 372 -373 0
37 62 36 -372 373 0
37 62 36 -372 -373 0
-37 -62 36 374 375 0
-37 -62 36 374 -375 0
-37 -62 36 -374 375 0
-37 -62 36 -374 -375 0
37 -62 -36 376 377 0
37 -62 -36 376 -377 0
37 -62 -36 -376 377 0
37 -62 -36 -376 -377 0
-37 62 -36 378 379 0
-37 62 -36 378 -379 0
-37 62 -36 -378 379 0
-37 62 -36 -378 -379 0
38 61 37 380 381 0
38 61 37 380 -381 0
38 61 37 -380 381 0
38 61 37 -380 -381 0
-38 -61 37 382 383 0
-38 -61 37 382 -383 0
-38 -61 37 -382 383 0
-38 -61 37 -382 -383 0
38 -61 -37 384 385 0
38 -61 -37 384 -385 0
38 -61 -37 -384 385 0
38 -61 -37 -384 -385 0
-38 61 -37 386 387 0
-38 61 -37 386 -387 0
-38 61 -37 -386 387 0
-38 61 -37 -386 -387 0
39 60 38 388 389 0
39 60 38 388 -389 0
39 60 38 -388 389 0
39 60 38 -388 -389 0
-39 -60 38 390 391 0
-39 -60 38 390 -391 0
-39 -60 38 -390 391 0
-39 -60 38 -390 -391 0
39 -60 -38 392 393 0
39 -60 -38 392 -393 0
39 -60 -38 -392 393 0
39 -60 -38 -392 -393 0
-39 60 -38 394 395 0
-39 60 -38 394 -395 0
-39 60 -38 -394 395 0
-39 60 -38 -394 -395 0
40 59 39 396 397 0
40 59 39 396 -397 0
40 59 39 -396 397 0
40 59 39 -396 -397 0
-40 -59 39 398 399 0
-40 -59 39 398 -399 0
-40 -59 39 -398 399 0
-40 -59 39 -398 -399 0
40 -59 -39 400 401 0
40 -59 -39 400 -401 0
40 -59 -39 -400 401 0
40 -59 -39 -400 -401 0
-40 59 -39 402 403 0
-40 59 -39 402 -403 0
-40 59 -39 -402 403 0
-40 59 -39 -402 -403 0
41 58 40 404 405 0
41 58 40 404 -405 0
41 58 40 -404 405 0
41 58 40 -404 -405 0
-41 -58 40 406 407 0
-41 -58 40 406 -407 0
-41 -58 40 -406 407 0
-41 -58 40 -406 -407 0
41 -58 -40 408 409 0
41 -58 -40 408 -409 0
41 -58 -40 -408 409 0
41 -58 -40 -408 -409 0
-41 58 -40 410 411 0
-41 58 -40 410 -411 0
-41 58 -40 -410 411 0
-41 58 -40 -410 -411 0
42 57 41 412 413 0
42 57 41 412 -413 0
42 57 41 -412 413 0
42 57 41 -412 -413 0
-42 -57 41 414 415 0
-42 -57 41 414 -415 0
-42 -57 41 -414 415 0
-42 -57 41 -414 -415 0
42 -57 -41 416 417 0
42 -57 -41 416 -417 0
42 -57 -41 -416 417 0
42 -57 -41 -416 -417 0
-42 57 -41 418 419 0
-42 57 -41 418 -419 0
-42 57 -41 -418 419 0
-42 57 -41 -418 -419 0
43 56 42 420 421 0
43 56 42 420 -421 0
43 56 42 -420 421 0
43 56 42 -420 -421 0
-43 -56 42 422 423 0
-43 -56 42 422 -423 0
-43 -56 42 -422 423 0
-43 -56 42 -422 -423 0
43 -56 -42 424 425 0
43 -56 -42 424 -425 0
43 -56 -42 -424 425 0
43 -56 -42 -424 -425 0
-43 56 -42 426 427 0
-43 56 -42 426 -427 0
-43 56 -42 -426 427 0
-43 56 -42 -426 -427 0
44 55 43 428 429 0
44 55 43 428 -429 0
44 55 43 -428 429 0
44 55 43 -428 -429 0
-44 -55 43 430 431 0
-44 -55 43 430 -431 0
-44 -55 43 -430 431 0
-44 -55 43 -430 -431 0
44 -55 -43 432 433 0
44 -55 -43 432 -433 0
44 -55 -43 -432 433 0
44 -55 -43 -432 -433 0
-44 55 -43 434 435 0
-44 55 -43 434 -435 0
-44 55 -43 -434 435 0
-44 55 -43 -434 -435 0
45 54 44 436 437 0
45 54 44 436 -437 0
45 54 44 -436 437 0
45 54 44 -436 -437 0
-45 -54 44 438 439 0
-45 -54 44 438 -439 0
-45 -54 44 -438 439 0
-45 -54 44 -438 -439 0
45 -54 -44 440 441 0
45 -54 -44 440 -441 0
45 -54 -44 -440 441 0
45 -54 -44 -440 -441 0
-45 54 -44 442 443 0
-45 54 -44 442 -443 0
-45 54 -44 -442 443 0
-45 54 -44 -442 -443 0
46 53 45 444 445 0
46 53 45 444 -445 0
46 53 45 -444 445 0
46 53 45 -444 -445 0
-46 -53 45 446 447 0
-46 -53 45 446 -447 0
-46 -53 45 -446 447 0
-46 -53 45 -446 -447 0
46 -53 -45 448 449 0
46 -53 -45 448 -449 0
46 -53 -45 -448 449 0
46 -53 -45 -448 -449 0
-46 53 -45 450 451 0
-46 53 -45 450 -451 0
-46 53 -45 -450 451 0
-46 53 -45 -450 -451 0
47 52 46 452 453 0
47 52 46 452 -453 0
47 52 46 -452 453 0
47 52 46 -452 -453 0
-47 -52 46 454 455 0
-47 -52 46 454 -455 0
-47 -52 46 -454 455 0
-47 -52 46 -454 -455 0
47 -52 -46 456 457 0
47 -52 -46 456 -457 0
47 -52 -46 -456 457 0
47 -52 -46 -456 -457 0
-47 52 -46 458 459 0
-47 52 -46 458 -459 0
-47 52 -46 -458 459 0
-47 52 -46 -458 -459 0
48 51 47 460 461 0
48 51 47 460 -461 0
48 51 47 -460 461 0
48 51 47 -460 -461 0
-48 -51 47 462 463 0
-48 -51 47 462 -463 0
-48 -51 47 -462 463 0
-48 -51 47 -462 -463 0
48 -51 -47 464 465 0
48 -51 -47 464 -465 0
48 -51 -47 -464 465 0
48 -51 -47 -464 -465 0
-48 51 -47 466 467 0
-48 51 -47 466 -467 0
-48 51 -47 -466 467 0
-48 51 -47 -466 -467 0
49 50 -48 468 469 0
49 50 -48 468 -469 0
49 50 -48 -468 469 0
49 50 -48 -468 -469 0
-49 -50 -48 470 471 0
-49 -50 -48 470 -471 0
-49 -50 -48 -470 471 0
-49 -50 -48 -470 -471 0
49 -50 48 472 473 0
49 -50 48 472 -473 0
49 -50 48 -472 473 0
49 -50 48 -472 -473 0
-49 50 48 474 475 0
-49 50 48 474 -475 0
-49 50 48 -474 475 0
-49 50 48 -474 -475 0
